186
1000
796	1
791	1
789	1
787	1
785	1
778	1
777	1
765	2
761	1
758	1
756	1
755	2
753	1
752	1
745	1
742	1
733	1
730	1
725	1
724	1
717	1
715	1
713	1
711	1
710	1
708	2
705	1
702	1
699	1
697	2
694	1
691	1
688	1
687	1
683	1
681	1
678	1
673	1
671	1
668	1
657	1
646	1
639	1
632	2
617	1
612	1
611	1
610	1
609	1
604	2
600	1
599	1
598	1
594	1
593	1
592	1
591	1
589	1
585	1
581	1
573	1
571	1
565	1
562	1
552	1
544	1
540	1
536	1
535	1
532	1
528	1
524	1
520	1
508	1
504	1
497	1
494	1
493	1
492	1
490	1
488	1
487	1
483	1
472	1
471	1
469	1
468	1
465	1
464	1
463	1
462	1
461	2
459	1
458	1
451	1
450	1
445	1
441	1
439	1
437	1
435	1
427	1
425	1
424	1
423	1
410	1
407	1
405	1
404	1
395	1
390	1
382	1
378	1
376	1
368	1
364	2
359	1
355	1
349	1
347	1
346	1
344	1
341	1
339	1
336	1
334	1
330	1
329	1
323	1
321	2
319	1
317	1
314	1
312	1
311	2
308	1
307	1
306	1
304	1
301	1
300	1
299	1
297	1
296	1
292	1
290	1
278	1
269	1
268	1
267	1
266	1
265	2
263	1
261	1
254	1
246	1
244	1
240	1
239	1
238	1
233	1
222	1
221	1
217	1
209	1
205	1
202	1
192	1
187	1
186	2
178	1
174	1
171	2
164	1
157	1
155	1
142	1
132	1
130	1
123	1
122	1
117	1
113	1
111	2
109	1
102	1
